JulietBench/Juliet_Based_Patch_Bench/FFmpeg/CWE-189-Numeric-Errors/CVE_2013_0875_1ac0fa50eff30d413206cffa5f47f7fe6d4849b1/Resultff_add_png_paeth_prediction_Snippet_patch2EQ.smt2
; benchmark generated from python API
(set-info :status unknown)
(declare-fun R () (_ BitVec 32))
(declare-fun rsi () (_ BitVec 64))
(declare-fun rdi () (_ BitVec 64))
(assert
 (let (($x1251 (= (_ bv0 32) R)))
 (let ((?x8 ((_ extract 31 0) rsi)))
 (let (($x41 (bvsgt (_ bv0 32) ?x8)))
 (let (($x1253 (and $x41 $x1251)))
 (let (($x12 (bvsle (_ bv0 32) ?x8)))
 (let (($x1233 (bvsgt (_ bv1 32) ?x8)))
 (let (($x1259 (and $x1233 $x12 $x1251)))
 (let (($x1257 (= (_ bv1 32) R)))
 (let (($x1235 (bvsle (_ bv1 32) ?x8)))
 (let (($x758 (bvsgt (_ bv2 32) ?x8)))
 (let (($x1258 (and $x758 $x1235 $x12 $x1257)))
 (let (($x1255 (= (_ bv3 32) R)))
 (let (($x1224 (bvsle (_ bv2 32) ?x8)))
 (let (($x1245 (bvsgt (_ bv3 32) ?x8)))
 (let (($x1256 (and $x1245 $x1224 $x1235 $x12 $x1255)))
 (let (($x1260 (or $x1256 $x1258 $x1259 $x1253)))
 (let ((?x6 ((_ extract 31 0) rdi)))
 (let (($x345 (bvsgt ?x6 ?x8)))
 (let (($x1252 (and $x345 $x12 $x1251)))
 (let (($x1249 (= R ?x6)))
 (let (($x45 (bvsle ?x6 ?x8)))
 (let ((?x40 (bvmul (_ bv2 32) ?x6)))
 (let (($x750 (bvsgt ?x40 ?x8)))
 (let (($x1250 (and $x750 $x45 $x12 $x1249)))
 (let ((?x757 (bvmul (_ bv3 32) ?x6)))
 (let (($x1246 (= R ?x757)))
 (let (($x348 (bvsle ?x40 ?x8)))
 (let (($x1218 (bvsgt ?x757 ?x8)))
 (let (($x1248 (and $x1218 $x348 $x45 $x12 $x1246)))
 (let (($x1254 (or $x1248 $x1250 $x1252 $x1253)))
 (and $x1254 $x1260))))))))))))))))))))))))))))))))
(check-sat)
